100
1000
167
167
166
166
165
165
165
165
165
164
164
164
162
161
160
160
160
160
159
158
158
157
157
157
155
154
153
153
152
152
152
151
151
151
150
150
150
149
148
147
145
145
144
144
143
143
143
143
140
140
140
140
140
139
139
137
137
137
136
135
134
134
133
133
132
132
131
129
129
128
127
127
127
126
125
125
123
123
123
123
122
122
122
120
120
119
119
119
118
117
117
117
116
116
115
115
115
115
115
115
